c description: Graph pigeonhole principle formula on fast_gnp_random_graph(10,25,0.9)
c generator: CNFgen (0.9.0)
c copyright: (C) 2012-2020 Massimo Lauria <massimo.lauria@uniroma1.it>
c url: https://massimolauria.net/cnfgen
c
p cnf 224 912
1 2 3 4 5 6 7 8 9 10 11 12 13 14 15 16 17 18 19 20 21 22 23 0
24 25 26 27 28 29 30 31 32 33 34 35 36 37 38 39 40 41 42 43 44 45 46 0
47 48 49 50 51 52 53 54 55 56 57 58 59 60 61 62 63 64 65 66 67 0
68 69 70 71 72 73 74 75 76 77 78 79 80 81 82 83 84 85 86 87 88 0
89 90 91 92 93 94 95 96 97 98 99 100 101 102 103 104 105 106 107 108 109 110 111 112 0
113 114 115 116 117 118 119 120 121 122 123 124 125 126 127 128 129 130 131 132 133 134 0
135 136 137 138 139 140 141 142 143 144 145 146 147 148 149 150 151 152 153 154 0
155 156 157 158 159 160 161 162 163 164 165 166 167 168 169 170 171 172 173 174 175 176 0
177 178 179 180 181 182 183 184 185 186 187 188 189 190 191 192 193 194 195 196 197 198 199 0
200 201 202 203 204 205 206 207 208 209 210 211 212 213 214 215 216 217 218 219 220 221 222 223 224 0
-1 -24 0
-1 -47 0
-1 -68 0
-1 -89 0
-1 -113 0
-1 -135 0
-1 -155 0
-1 -177 0
-1 -200 0
-24 -47 0
-24 -68 0
-24 -89 0
-24 -113 0
-24 -135 0
-24 -155 0
-24 -177 0
-24 -200 0
-47 -68 0
-47 -89 0
-47 -113 0
-47 -135 0
-47 -155 0
-47 -177 0
-47 -200 0
-68 -89 0
-68 -113 0
-68 -135 0
-68 -155 0
-68 -177 0
-68 -200 0
-89 -113 0
-89 -135 0
-89 -155 0
-89 -177 0
-89 -200 0
-113 -135 0
-113 -155 0
-113 -177 0
-113 -200 0
-135 -155 0
-135 -177 0
-135 -200 0
-155 -177 0
-155 -200 0
-177 -200 0
-2 -25 0
-2 -48 0
-2 -69 0
-2 -90 0
-2 -114 0
-2 -136 0
-2 -156 0
-2 -178 0
-2 -201 0
-25 -48 0
-25 -69 0
-25 -90 0
-25 -114 0
-25 -136 0
-25 -156 0
-25 -178 0
-25 -201 0
-48 -69 0
-48 -90 0
-48 -114 0
-48 -136 0
-48 -156 0
-48 -178 0
-48 -201 0
-69 -90 0
-69 -114 0
-69 -136 0
-69 -156 0
-69 -178 0
-69 -201 0
-90 -114 0
-90 -136 0
-90 -156 0
-90 -178 0
-90 -201 0
-114 -136 0
-114 -156 0
-114 -178 0
-114 -201 0
-136 -156 0
-136 -178 0
-136 -201 0
-156 -178 0
-156 -201 0
-178 -201 0
-3 -26 0
-3 -49 0
-3 -91 0
-3 -115 0
-3 -137 0
-3 -157 0
-3 -179 0
-3 -202 0
-26 -49 0
-26 -91 0
-26 -115 0
-26 -137 0
-26 -157 0
-26 -179 0
-26 -202 0
-49 -91 0
-49 -115 0
-49 -137 0
-49 -157 0
-49 -179 0
-49 -202 0
-91 -115 0
-91 -137 0
-91 -157 0
-91 -179 0
-91 -202 0
-115 -137 0
-115 -157 0
-115 -179 0
-115 -202 0
-137 -157 0
-137 -179 0
-137 -202 0
-157 -179 0
-157 -202 0
-179 -202 0
-4 -27 0
-4 -50 0
-4 -70 0
-4 -92 0
-4 -116 0
-4 -138 0
-4 -158 0
-4 -180 0
-4 -203 0
-27 -50 0
-27 -70 0
-27 -92 0
-27 -116 0
-27 -138 0
-27 -158 0
-27 -180 0
-27 -203 0
-50 -70 0
-50 -92 0
-50 -116 0
-50 -138 0
-50 -158 0
-50 -180 0
-50 -203 0
-70 -92 0
-70 -116 0
-70 -138 0
-70 -158 0
-70 -180 0
-70 -203 0
-92 -116 0
-92 -138 0
-92 -158 0
-92 -180 0
-92 -203 0
-116 -138 0
-116 -158 0
-116 -180 0
-116 -203 0
-138 -158 0
-138 -180 0
-138 -203 0
-158 -180 0
-158 -203 0
-180 -203 0
-5 -28 0
-5 -51 0
-5 -71 0
-5 -93 0
-5 -117 0
-5 -139 0
-5 -159 0
-5 -181 0
-5 -204 0
-28 -51 0
-28 -71 0
-28 -93 0
-28 -117 0
-28 -139 0
-28 -159 0
-28 -181 0
-28 -204 0
-51 -71 0
-51 -93 0
-51 -117 0
-51 -139 0
-51 -159 0
-51 -181 0
-51 -204 0
-71 -93 0
-71 -117 0
-71 -139 0
-71 -159 0
-71 -181 0
-71 -204 0
-93 -117 0
-93 -139 0
-93 -159 0
-93 -181 0
-93 -204 0
-117 -139 0
-117 -159 0
-117 -181 0
-117 -204 0
-139 -159 0
-139 -181 0
-139 -204 0
-159 -181 0
-159 -204 0
-181 -204 0
-6 -29 0
-6 -52 0
-6 -72 0
-6 -94 0
-6 -118 0
-6 -205 0
-29 -52 0
-29 -72 0
-29 -94 0
-29 -118 0
-29 -205 0
-52 -72 0
-52 -94 0
-52 -118 0
-52 -205 0
-72 -94 0
-72 -118 0
-72 -205 0
-94 -118 0
-94 -205 0
-118 -205 0
-7 -30 0
-7 -53 0
-7 -73 0
-7 -95 0
-7 -119 0
-7 -140 0
-7 -160 0
-7 -182 0
-7 -206 0
-30 -53 0
-30 -73 0
-30 -95 0
-30 -119 0
-30 -140 0
-30 -160 0
-30 -182 0
-30 -206 0
-53 -73 0
-53 -95 0
-53 -119 0
-53 -140 0
-53 -160 0
-53 -182 0
-53 -206 0
-73 -95 0
-73 -119 0
-73 -140 0
-73 -160 0
-73 -182 0
-73 -206 0
-95 -119 0
-95 -140 0
-95 -160 0
-95 -182 0
-95 -206 0
-119 -140 0
-119 -160 0
-119 -182 0
-119 -206 0
-140 -160 0
-140 -182 0
-140 -206 0
-160 -182 0
-160 -206 0
-182 -206 0
-8 -31 0
-8 -54 0
-8 -74 0
-8 -96 0
-8 -120 0
-8 -141 0
-8 -161 0
-8 -183 0
-8 -207 0
-31 -54 0
-31 -74 0
-31 -96 0
-31 -120 0
-31 -141 0
-31 -161 0
-31 -183 0
-31 -207 0
-54 -74 0
-54 -96 0
-54 -120 0
-54 -141 0
-54 -161 0
-54 -183 0
-54 -207 0
-74 -96 0
-74 -120 0
-74 -141 0
-74 -161 0
-74 -183 0
-74 -207 0
-96 -120 0
-96 -141 0
-96 -161 0
-96 -183 0
-96 -207 0
-120 -141 0
-120 -161 0
-120 -183 0
-120 -207 0
-141 -161 0
-141 -183 0
-141 -207 0
-161 -183 0
-161 -207 0
-183 -207 0
-9 -32 0
-9 -55 0
-9 -97 0
-9 -142 0
-9 -162 0
-9 -184 0
-9 -208 0
-32 -55 0
-32 -97 0
-32 -142 0
-32 -162 0
-32 -184 0
-32 -208 0
-55 -97 0
-55 -142 0
-55 -162 0
-55 -184 0
-55 -208 0
-97 -142 0
-97 -162 0
-97 -184 0
-97 -208 0
-142 -162 0
-142 -184 0
-142 -208 0
-162 -184 0
-162 -208 0
-184 -208 0
-10 -33 0
-10 -75 0
-10 -98 0
-10 -121 0
-10 -143 0
-10 -163 0
-10 -185 0
-10 -209 0
-33 -75 0
-33 -98 0
-33 -121 0
-33 -143 0
-33 -163 0
-33 -185 0
-33 -209 0
-75 -98 0
-75 -121 0
-75 -143 0
-75 -163 0
-75 -185 0
-75 -209 0
-98 -121 0
-98 -143 0
-98 -163 0
-98 -185 0
-98 -209 0
-121 -143 0
-121 -163 0
-121 -185 0
-121 -209 0
-143 -163 0
-143 -185 0
-143 -209 0
-163 -185 0
-163 -209 0
-185 -209 0
-11 -34 0
-11 -76 0
-11 -99 0
-11 -122 0
-11 -144 0
-11 -164 0
-11 -186 0
-11 -210 0
-34 -76 0
-34 -99 0
-34 -122 0
-34 -144 0
-34 -164 0
-34 -186 0
-34 -210 0
-76 -99 0
-76 -122 0
-76 -144 0
-76 -164 0
-76 -186 0
-76 -210 0
-99 -122 0
-99 -144 0
-99 -164 0
-99 -186 0
-99 -210 0
-122 -144 0
-122 -164 0
-122 -186 0
-122 -210 0
-144 -164 0
-144 -186 0
-144 -210 0
-164 -186 0
-164 -210 0
-186 -210 0
-12 -35 0
-12 -56 0
-12 -77 0
-12 -100 0
-12 -123 0
-12 -145 0
-12 -165 0
-12 -187 0
-12 -211 0
-35 -56 0
-35 -77 0
-35 -100 0
-35 -123 0
-35 -145 0
-35 -165 0
-35 -187 0
-35 -211 0
-56 -77 0
-56 -100 0
-56 -123 0
-56 -145 0
-56 -165 0
-56 -187 0
-56 -211 0
-77 -100 0
-77 -123 0
-77 -145 0
-77 -165 0
-77 -187 0
-77 -211 0
-100 -123 0
-100 -145 0
-100 -165 0
-100 -187 0
-100 -211 0
-123 -145 0
-123 -165 0
-123 -187 0
-123 -211 0
-145 -165 0
-145 -187 0
-145 -211 0
-165 -187 0
-165 -211 0
-187 -211 0
-13 -36 0
-13 -78 0
-13 -101 0
-13 -124 0
-13 -166 0
-13 -188 0
-13 -212 0
-36 -78 0
-36 -101 0
-36 -124 0
-36 -166 0
-36 -188 0
-36 -212 0
-78 -101 0
-78 -124 0
-78 -166 0
-78 -188 0
-78 -212 0
-101 -124 0
-101 -166 0
-101 -188 0
-101 -212 0
-124 -166 0
-124 -188 0
-124 -212 0
-166 -188 0
-166 -212 0
-188 -212 0
-57 -79 0
-57 -102 0
-57 -125 0
-57 -146 0
-57 -189 0
-57 -213 0
-79 -102 0
-79 -125 0
-79 -146 0
-79 -189 0
-79 -213 0
-102 -125 0
-102 -146 0
-102 -189 0
-102 -213 0
-125 -146 0
-125 -189 0
-125 -213 0
-146 -189 0
-146 -213 0
-189 -213 0
-14 -37 0
-14 -58 0
-14 -80 0
-14 -126 0
-14 -147 0
-14 -167 0
-14 -190 0
-14 -214 0
-37 -58 0
-37 -80 0
-37 -126 0
-37 -147 0
-37 -167 0
-37 -190 0
-37 -214 0
-58 -80 0
-58 -126 0
-58 -147 0
-58 -167 0
-58 -190 0
-58 -214 0
-80 -126 0
-80 -147 0
-80 -167 0
-80 -190 0
-80 -214 0
-126 -147 0
-126 -167 0
-126 -190 0
-126 -214 0
-147 -167 0
-147 -190 0
-147 -214 0
-167 -190 0
-167 -214 0
-190 -214 0
-15 -38 0
-15 -59 0
-15 -103 0
-15 -127 0
-15 -148 0
-15 -168 0
-15 -191 0
-15 -215 0
-38 -59 0
-38 -103 0
-38 -127 0
-38 -148 0
-38 -168 0
-38 -191 0
-38 -215 0
-59 -103 0
-59 -127 0
-59 -148 0
-59 -168 0
-59 -191 0
-59 -215 0
-103 -127 0
-103 -148 0
-103 -168 0
-103 -191 0
-103 -215 0
-127 -148 0
-127 -168 0
-127 -191 0
-127 -215 0
-148 -168 0
-148 -191 0
-148 -215 0
-168 -191 0
-168 -215 0
-191 -215 0
-16 -39 0
-16 -60 0
-16 -81 0
-16 -104 0
-16 -128 0
-16 -149 0
-16 -169 0
-16 -192 0
-16 -216 0
-39 -60 0
-39 -81 0
-39 -104 0
-39 -128 0
-39 -149 0
-39 -169 0
-39 -192 0
-39 -216 0
-60 -81 0
-60 -104 0
-60 -128 0
-60 -149 0
-60 -169 0
-60 -192 0
-60 -216 0
-81 -104 0
-81 -128 0
-81 -149 0
-81 -169 0
-81 -192 0
-81 -216 0
-104 -128 0
-104 -149 0
-104 -169 0
-104 -192 0
-104 -216 0
-128 -149 0
-128 -169 0
-128 -192 0
-128 -216 0
-149 -169 0
-149 -192 0
-149 -216 0
-169 -192 0
-169 -216 0
-192 -216 0
-17 -61 0
-17 -82 0
-17 -105 0
-17 -129 0
-17 -150 0
-17 -170 0
-17 -193 0
-17 -217 0
-61 -82 0
-61 -105 0
-61 -129 0
-61 -150 0
-61 -170 0
-61 -193 0
-61 -217 0
-82 -105 0
-82 -129 0
-82 -150 0
-82 -170 0
-82 -193 0
-82 -217 0
-105 -129 0
-105 -150 0
-105 -170 0
-105 -193 0
-105 -217 0
-129 -150 0
-129 -170 0
-129 -193 0
-129 -217 0
-150 -170 0
-150 -193 0
-150 -217 0
-170 -193 0
-170 -217 0
-193 -217 0
-18 -40 0
-18 -83 0
-18 -106 0
-18 -130 0
-18 -151 0
-18 -171 0
-18 -218 0
-40 -83 0
-40 -106 0
-40 -130 0
-40 -151 0
-40 -171 0
-40 -218 0
-83 -106 0
-83 -130 0
-83 -151 0
-83 -171 0
-83 -218 0
-106 -130 0
-106 -151 0
-106 -171 0
-106 -218 0
-130 -151 0
-130 -171 0
-130 -218 0
-151 -171 0
-151 -218 0
-171 -218 0
-41 -62 0
-41 -84 0
-41 -107 0
-41 -131 0
-41 -152 0
-41 -172 0
-41 -194 0
-41 -219 0
-62 -84 0
-62 -107 0
-62 -131 0
-62 -152 0
-62 -172 0
-62 -194 0
-62 -219 0
-84 -107 0
-84 -131 0
-84 -152 0
-84 -172 0
-84 -194 0
-84 -219 0
-107 -131 0
-107 -152 0
-107 -172 0
-107 -194 0
-107 -219 0
-131 -152 0
-131 -172 0
-131 -194 0
-131 -219 0
-152 -172 0
-152 -194 0
-152 -219 0
-172 -194 0
-172 -219 0
-194 -219 0
-19 -42 0
-19 -63 0
-19 -85 0
-19 -108 0
-19 -132 0
-19 -173 0
-19 -195 0
-19 -220 0
-42 -63 0
-42 -85 0
-42 -108 0
-42 -132 0
-42 -173 0
-42 -195 0
-42 -220 0
-63 -85 0
-63 -108 0
-63 -132 0
-63 -173 0
-63 -195 0
-63 -220 0
-85 -108 0
-85 -132 0
-85 -173 0
-85 -195 0
-85 -220 0
-108 -132 0
-108 -173 0
-108 -195 0
-108 -220 0
-132 -173 0
-132 -195 0
-132 -220 0
-173 -195 0
-173 -220 0
-195 -220 0
-20 -43 0
-20 -64 0
-20 -86 0
-20 -109 0
-20 -153 0
-20 -196 0
-20 -221 0
-43 -64 0
-43 -86 0
-43 -109 0
-43 -153 0
-43 -196 0
-43 -221 0
-64 -86 0
-64 -109 0
-64 -153 0
-64 -196 0
-64 -221 0
-86 -109 0
-86 -153 0
-86 -196 0
-86 -221 0
-109 -153 0
-109 -196 0
-109 -221 0
-153 -196 0
-153 -221 0
-196 -221 0
-21 -44 0
-21 -65 0
-21 -110 0
-21 -154 0
-21 -174 0
-21 -197 0
-21 -222 0
-44 -65 0
-44 -110 0
-44 -154 0
-44 -174 0
-44 -197 0
-44 -222 0
-65 -110 0
-65 -154 0
-65 -174 0
-65 -197 0
-65 -222 0
-110 -154 0
-110 -174 0
-110 -197 0
-110 -222 0
-154 -174 0
-154 -197 0
-154 -222 0
-174 -197 0
-174 -222 0
-197 -222 0
-22 -45 0
-22 -66 0
-22 -87 0
-22 -111 0
-22 -133 0
-22 -175 0
-22 -198 0
-22 -223 0
-45 -66 0
-45 -87 0
-45 -111 0
-45 -133 0
-45 -175 0
-45 -198 0
-45 -223 0
-66 -87 0
-66 -111 0
-66 -133 0
-66 -175 0
-66 -198 0
-66 -223 0
-87 -111 0
-87 -133 0
-87 -175 0
-87 -198 0
-87 -223 0
-111 -133 0
-111 -175 0
-111 -198 0
-111 -223 0
-133 -175 0
-133 -198 0
-133 -223 0
-175 -198 0
-175 -223 0
-198 -223 0
-23 -46 0
-23 -67 0
-23 -88 0
-23 -112 0
-23 -134 0
-23 -176 0
-23 -199 0
-23 -224 0
-46 -67 0
-46 -88 0
-46 -112 0
-46 -134 0
-46 -176 0
-46 -199 0
-46 -224 0
-67 -88 0
-67 -112 0
-67 -134 0
-67 -176 0
-67 -199 0
-67 -224 0
-88 -112 0
-88 -134 0
-88 -176 0
-88 -199 0
-88 -224 0
-112 -134 0
-112 -176 0
-112 -199 0
-112 -224 0
-134 -176 0
-134 -199 0
-134 -224 0
-176 -199 0
-176 -224 0
-199 -224 0